problem_generation/data/GISP/train/er_n=66_m=1269_p=0.60_SET2_setparam=100.00_alpha=0.50_110.lp
maximize
OBJ:100x0 + 100x1 + 100x2 + 100x3 + 100x4 + 100x5 + 100x6 + 100x7 + 100x8 + 100x9 + 100x10 + 100x11 + 100x12 + 100x13 + 100x14 + 100x15 + 100x16 + 100x17 + 100x18 + 100x19 + 100x20 + 100x21 + 100x22 + 100x23 + 100x24 + 100x25 + 100x26 + 100x27 + 100x28 + 100x29 + 100x30 + 100x31 + 100x32 + 100x33 + 100x34 + 100x35 + 100x36 + 100x37 + 100x38 + 100x39 + 100x40 + 100x41 + 100x42 + 100x43 + 100x44 + 100x45 + 100x46 + 100x47 + 100x48 + 100x49 + 100x50 + 100x51 + 100x52 + 100x53 + 100x54 + 100x55 + 100x56 + 100x57 + 100x58 + 100x59 + 100x60 + 100x61 + 100x62 + 100x63 + 100x64 + 100x65 - y7_26 - y36_62 - y47_62 - y7_35 - y5_65 - y29_32 - y8_9 - y0_5 - y29_41 - y40_41 - y0_14 - y29_50 - y40_50 - y48_63 - y40_59 - y41_42 - y25_43 - y2_50 - y3_15 - y10_63 - y14_15 - y2_59 - y13_65 - y24_65 - y3_42 - y36_48 - y15_25 - y47_57 - y17_53 - y9_49 - y5_60 - y28_62 - y29_36 - y6_43 - y40_45 - y48_58 - y29_63 - y2_27 - y10_49 - y3_10 - y10_58 - y22_23 - y3_19 - y43_55 - y14_28 - y32_64 - y7_16 - y55_65 - y36_61 - y59_63 - y5_55 - y17_57 - y28_57 - y9_53 - y9_62 - y29_40 - y6_47 - y21_54 - y39_62 - y2_22 - y10_35 - y25_33 - y10_44 - y2_40 - y3_5 - y25_42 - y2_49 - y22_27 - y24_46 - y43_59 - y13_55 - y16_51 - y24_64 - y28_34 - y7_11 - y55_60 - y5_50 - y6_15 - y17_52 - y9_48 - y28_52 - y28_61 - y21_22 - y6_33 - y6_42 - y42_63 - y10_12 - y20_53 - y54_55 - y20_62 - y25_28 - y31_62 - y3_9 - y4_63 - y32_45 - y24_41 - y35_41 - y43_54 - y16_37 - y51_58 - y1_48 - y13_50 - y43_63 - y16_46 - y16_55 - y9_25 - y28_38 - y9_34 - y9_43 - y5_54 - y6_19 - y6_28 - y50_62 - y6_46 - y19_65 - y10_16 - y31_48 - y10_25 - y62_63 - y4_49 - y12_62 - y24_27 - y1_34 - y43_49 - y13_45 - y32_58 - y16_50 - y13_63 - y5_31 - y9_29 - y38_65 - y5_40 - y17_42 - y28_42 - y9_47 - y27_55 - y8_51 - y27_64 - y8_60 - y0_56 - y20_34 - y31_34 - y2_7 - y39_56 - y12_39 - y2_16 - y20_52 - y12_48 - y31_61 - y23_57 - y4_53 - y13_31 - y43_44 - y35_40 - y35_49 - y16_54 - y17_19 - y5_26 - y38_60 - y5_35 - y17_37 - y28_37 - y50_52 - y58_65 - y19_55 - y0_51 - y19_64 - y0_60 - y23_25 - y31_38 - y12_34 - y23_34 - y4_30 - y39_60 - y23_43 - y12_52 - y23_52 - y31_65 - y1_24 - y13_26 - y4_57 - y24_35 - y37_63 - y16_49 - y46_59 - y57_59 - y15_53 - y26_53 - y5_30 - y38_55 - y26_62 - y49_64 - y6_13 - y27_45 - y8_41 - y30_41 - y42_43 - y19_50 - y30_50 - y42_52 - y0_46 - y19_59 - y20_24 - y42_61 - y11_55 - y39_46 - y23_29 - y20_42 - y4_25 - y23_38 - y4_34 - y12_47 - y23_47 - y12_56 - y1_19 - y34_53 - y13_30 - y22_60 - y34_62 - y45_62 - y56_62 - y16_35 - y3_65 - y38_50 - y49_50 - y46_63 - y57_63 - y38_59 - y49_59 - y27_31 - y8_27 - y0_32 - y8_45 - y19_45 - y27_58 - y8_54 - y0_50 - y60_64 - y0_59 - y52_60 - y4_29 - y12_42 - y34_39 - y1_14 - y37_44 - y3_51 - y22_64 - y3_60 - y14_60 - y26_43 - y18_39 - y26_52 - y49_54 - y7_48 - y8_13 - y8_22 - y19_22 - y0_18 - y19_31 - y30_31 - y8_40 - y19_40 - y8_49 - y30_49 - y0_45 - y4_6 - y0_54 - y12_19 - y41_55 - y20_32 - y4_15 - y23_28 - y52_64 - y4_33 - y1_9 - y2_63 - y34_43 - y1_18 - y22_50 - y14_46 - y56_61 - y14_55 - y3_64 - y5_6 - y18_25 - y7_34 - y38_49 - y26_56 - y26_65 - y11_13 - y7_61 - y8_26 - y29_58 - y0_31 - y30_44 - y12_23 - y10_53 - y33_55 - y44_55 - y2_58 - y25_60 - y34_38 - y1_13 - y22_45 - y14_41 - y37_43 - y22_54 - y45_56 - y37_52 - y56_65 - y3_59 - y7_20 - y18_20 - y15_33 - y26_42 - y18_38 - y26_51 - y18_56 - y8_21 - y0_17 - y40_62 - y21_58 - y0_35 - y41_45 - y33_41 - y41_54 - y25_37 - y52_54 - y10_48 - y44_50 - y41_63 - y33_59 - y2_53 - y25_55 - y25_64 - y22_40 - y34_42 - y3_36 - y14_36 - y7_24 - y36_60 - y15_37 - y18_33 - y29_39 - y8_16 - y48_52 - y19_25 - y21_44 - y48_61 - y6_55 - y21_53 - y11_30 - y21_62 - y25_32 - y25_41 - y33_54 - y44_54 - y2_48 - y3_13 - y25_50 - y22_26 - y44_63 - y25_59 - y51_62 - y3_31 - y14_31 - y22_44 - y3_49 - y14_49 - y7_19 - y18_19 - y15_32 - y47_55 - y36_64 - y28_60 - y8_11 - y9_65 - y48_56 - y21_39 - y6_50 - y11_16 - y40_61 - y21_57 - y10_29 - y3_8 - y10_56 - y51_57 - y2_52 - y3_17 - y25_54 - y32_53 - y2_61 - y43_62 - y14_35 - y16_63 - y28_46 - y47_59 - y9_42 - y5_53 - y9_60 - y29_38 - y48_51 - y21_43 - y54_58 - y2_29 - y20_65 - y33_44 - y2_38 - y14_21 - y32_57 - y24_53 - y1_60 - y17_32 - y7_9 - y36_45 - y17_41 - y28_41 - y9_37 - y5_48 - y47_63 - y6_31 - y21_38 - y39_55 - y39_64 - y54_62 - y2_33 - y51_56 - y24_39 - y35_39 - y14_25 - y43_61 - y16_53 - y17_18 - y1_64 - y5_34 - y28_36 - y9_32 - y17_45 - y36_58 - y28_63 - y6_26 - y50_60 - y10_14 - y2_10 - y31_46 - y31_64 - y23_60 - y3_11 - y51_60 - y13_43 - y16_39 - y16_48 - y24_61 - y35_61 - y17_40 - y28_40 - y9_36 - y28_49 - y9_45 - y6_21 - y58_59 - y9_54 - y50_55 - y42_51 - y8_58 - y42_60 - y2_5 - y10_18 - y39_54 - y12_46 - y4_42 - y32_33 - y1_27 - y51_55 - y13_38 - y43_51 - y16_34 - y13_47 - y5_24 - y17_26 - y36_39 - y15_65 - y28_44 - y6_16 - y58_63 - y50_59 - y19_62 - y20_27 - y42_64 - y31_36 - y10_13 - y12_41 - y20_54 - y31_54 - y54_56 - y20_63 - y23_59 - y4_55 - y24_33 - y4_64 - y34_65 - y16_38 - y16_47 - y1_58 - y38_53 - y5_28 - y38_62 - y27_34 - y6_20 - y8_39 - y50_54 - y42_50 - y50_63 - y0_44 - y61_63 - y12_18 - y20_31 - y11_62 - y23_27 - y2_4 - y4_23 - y12_36 - y4_32 - y12_54 - y1_17 - y23_54 - y4_50 - y53_55 - y1_26 - y4_59 - y45_60 - y56_60 - y13_37 - y35_37 - y37_65 - y16_42 - y38_39 - y46_52 - y57_61 - y15_55 - y26_55 - y49_57 - y27_29 - y7_60 - y27_38 - y8_34 - y19_34 - y0_30 - y8_43 - y42_45 - y27_56 - y8_52 - y19_52 - y30_52 - y0_48 - y20_26 - y20_44 - y1_3 - y4_36 - y1_12 - y13_14 - y34_55 - y16_28 - y56_64 - y37_60 - y49_52 - y57_65 - y7_46 - y38_61 - y49_61 - y19_20 - y27_33 - y18_64 - y27_42 - y11_25 - y19_38 - y30_47 - y42_49 - y11_43 - y20_21 - y0_52 - y11_52 - y4_13 - y33_58 - y12_35 - y1_16 - y53_54 - y45_50 - y3_62 - y26_36 - y46_51 - y18_41 - y15_63 - y26_63 - y48_60 - y27_37 - y0_20 - y29_65 - y19_42 - y0_38 - y19_51 - y0_47 - y41_48 - y20_25 - y52_57 - y4_17 - y12_30 - y1_2 - y25_58 - y4_35 - y3_39 - y37_41 - y22_52 - y34_54 - y56_63 - y37_59 - y7_18 - y59_65 - y15_40 - y26_40 - y7_45 - y7_54 - y8_19 - y18_54 - y0_33 - y4_12 - y25_44 - y44_57 - y25_53 - y10_64 - y1_6 - y2_60 - y25_62 - y22_56 - y56_58 - y14_52 - y15_17 - y22_65 - y7_13 - y15_44 - y7_49 - y40_46 - y19_23 - y11_19 - y40_55 - y30_32 - y6_62 - y11_28 - y25_30 - y33_43 - y4_16 - y44_52 - y41_65 - y2_46 - y34_35 - y14_29 - y34_44 - y3_38 - y22_51 - y37_49 - y14_56
 Subject to
C1: x0+x2 <=1 
C2: x0+x4 <=1 
C3: x0+x5-y0_5 <=1 
C4: x0+x6 <=1 
C5: x0+x7 <=1 
C6: x0+x8 <=1 
C7: x0+x9 <=1 
C8: x0+x10 <=1 
C9: x0+x11 <=1 
C10: x0+x14-y0_14 <=1 
C11: x0+x16 <=1 
C12: x0+x17-y0_17 <=1 
C13: x0+x18-y0_18 <=1 
C14: x0+x20-y0_20 <=1 
C15: x0+x21 <=1 
C16: x0+x22 <=1 
C17: x0+x26 <=1 
C18: x0+x30-y0_30 <=1 
C19: x0+x31-y0_31 <=1 
C20: x0+x32-y0_32 <=1 
C21: x0+x33-y0_33 <=1 
C22: x0+x35-y0_35 <=1 
C23: x0+x36 <=1 
C24: x0+x37 <=1 
C25: x0+x38-y0_38 <=1 
C26: x0+x42 <=1 
C27: x0+x43 <=1 
C28: x0+x44-y0_44 <=1 
C29: x0+x45-y0_45 <=1 
C30: x0+x46-y0_46 <=1 
C31: x0+x47-y0_47 <=1 
C32: x0+x48-y0_48 <=1 
C33: x0+x50-y0_50 <=1 
C34: x0+x51-y0_51 <=1 
C35: x0+x52-y0_52 <=1 
C36: x0+x54-y0_54 <=1 
C37: x0+x56-y0_56 <=1 
C38: x0+x57 <=1 
C39: x0+x59-y0_59 <=1 
C40: x0+x60-y0_60 <=1 
C41: x0+x63 <=1 
C42: x0+x65 <=1 
C43: x1+x2-y1_2 <=1 
C44: x1+x3-y1_3 <=1 
C45: x1+x6-y1_6 <=1 
C46: x1+x8 <=1 
C47: x1+x9-y1_9 <=1 
C48: x1+x10 <=1 
C49: x1+x11 <=1 
C50: x1+x12-y1_12 <=1 
C51: x1+x13-y1_13 <=1 
C52: x1+x14-y1_14 <=1 
C53: x1+x15 <=1 
C54: x1+x16-y1_16 <=1 
C55: x1+x17-y1_17 <=1 
C56: x1+x18-y1_18 <=1 
C57: x1+x19-y1_19 <=1 
C58: x1+x20 <=1 
C59: x1+x23 <=1 
C60: x1+x24-y1_24 <=1 
C61: x1+x25 <=1 
C62: x1+x26-y1_26 <=1 
C63: x1+x27-y1_27 <=1 
C64: x1+x28 <=1 
C65: x1+x31 <=1 
C66: x1+x32 <=1 
C67: x1+x34-y1_34 <=1 
C68: x1+x40 <=1 
C69: x1+x41 <=1 
C70: x1+x42 <=1 
C71: x1+x43 <=1 
C72: x1+x44 <=1 
C73: x1+x45 <=1 
C74: x1+x46 <=1 
C75: x1+x47 <=1 
C76: x1+x48-y1_48 <=1 
C77: x1+x50 <=1 
C78: x1+x53 <=1 
C79: x1+x54 <=1 
C80: x1+x58-y1_58 <=1 
C81: x1+x59 <=1 
C82: x1+x60-y1_60 <=1 
C83: x1+x61 <=1 
C84: x1+x64-y1_64 <=1 
C85: x2+x4-y2_4 <=1 
C86: x2+x5-y2_5 <=1 
C87: x2+x6 <=1 
C88: x2+x7-y2_7 <=1 
C89: x2+x9 <=1 
C90: x2+x10-y2_10 <=1 
C91: x2+x15 <=1 
C92: x2+x16-y2_16 <=1 
C93: x2+x22-y2_22 <=1 
C94: x2+x23 <=1 
C95: x2+x25 <=1 
C96: x2+x27-y2_27 <=1 
C97: x2+x29-y2_29 <=1 
C98: x2+x31 <=1 
C99: x2+x32 <=1 
C100: x2+x33-y2_33 <=1 
C101: x2+x34 <=1 
C102: x2+x38-y2_38 <=1 
C103: x2+x39 <=1 
C104: x2+x40-y2_40 <=1 
C105: x2+x42 <=1 
C106: x2+x46-y2_46 <=1 
C107: x2+x47 <=1 
C108: x2+x48-y2_48 <=1 
C109: x2+x49-y2_49 <=1 
C110: x2+x50-y2_50 <=1 
C111: x2+x51 <=1 
C112: x2+x52-y2_52 <=1 
C113: x2+x53-y2_53 <=1 
C114: x2+x58-y2_58 <=1 
C115: x2+x59-y2_59 <=1 
C116: x2+x60-y2_60 <=1 
C117: x2+x61-y2_61 <=1 
C118: x2+x62 <=1 
C119: x2+x63-y2_63 <=1 
C120: x3+x5-y3_5 <=1 
C121: x3+x7 <=1 
C122: x3+x8-y3_8 <=1 
C123: x3+x9-y3_9 <=1 
C124: x3+x10-y3_10 <=1 
C125: x3+x11-y3_11 <=1 
C126: x3+x13-y3_13 <=1 
C127: x3+x14 <=1 
C128: x3+x15-y3_15 <=1 
C129: x3+x16 <=1 
C130: x3+x17-y3_17 <=1 
C131: x3+x18 <=1 
C132: x3+x19-y3_19 <=1 
C133: x3+x21 <=1 
C134: x3+x22 <=1 
C135: x3+x24 <=1 
C136: x3+x25 <=1 
C137: x3+x28 <=1 
C138: x3+x29 <=1 
C139: x3+x30 <=1 
C140: x3+x31-y3_31 <=1 
C141: x3+x33 <=1 
C142: x3+x34 <=1 
C143: x3+x36-y3_36 <=1 
C144: x3+x37 <=1 
C145: x3+x38-y3_38 <=1 
C146: x3+x39-y3_39 <=1 
C147: x3+x41 <=1 
C148: x3+x42-y3_42 <=1 
C149: x3+x43 <=1 
C150: x3+x44 <=1 
C151: x3+x46 <=1 
C152: x3+x49-y3_49 <=1 
C153: x3+x51-y3_51 <=1 
C154: x3+x54 <=1 
C155: x3+x55 <=1 
C156: x3+x56 <=1 
C157: x3+x59-y3_59 <=1 
C158: x3+x60-y3_60 <=1 
C159: x3+x61 <=1 
C160: x3+x62-y3_62 <=1 
C161: x3+x63 <=1 
C162: x3+x64-y3_64 <=1 
C163: x3+x65-y3_65 <=1 
C164: x4+x6-y4_6 <=1 
C165: x4+x8 <=1 
C166: x4+x10 <=1 
C167: x4+x12-y4_12 <=1 
C168: x4+x13-y4_13 <=1 
C169: x4+x15-y4_15 <=1 
C170: x4+x16-y4_16 <=1 
C171: x4+x17-y4_17 <=1 
C172: x4+x18 <=1 
C173: x4+x23-y4_23 <=1 
C174: x4+x25-y4_25 <=1 
C175: x4+x29-y4_29 <=1 
C176: x4+x30-y4_30 <=1 
C177: x4+x32-y4_32 <=1 
C178: x4+x33-y4_33 <=1 
C179: x4+x34-y4_34 <=1 
C180: x4+x35-y4_35 <=1 
C181: x4+x36-y4_36 <=1 
C182: x4+x37 <=1 
C183: x4+x39 <=1 
C184: x4+x40 <=1 
C185: x4+x41 <=1 
C186: x4+x42-y4_42 <=1 
C187: x4+x49-y4_49 <=1 
C188: x4+x50-y4_50 <=1 
C189: x4+x51 <=1 
C190: x4+x52 <=1 
C191: x4+x53-y4_53 <=1 
C192: x4+x54 <=1 
C193: x4+x55-y4_55 <=1 
C194: x4+x57-y4_57 <=1 
C195: x4+x58 <=1 
C196: x4+x59-y4_59 <=1 
C197: x4+x61 <=1 
C198: x4+x63-y4_63 <=1 
C199: x4+x64-y4_64 <=1 
C200: x5+x6-y5_6 <=1 
C201: x5+x10 <=1 
C202: x5+x12 <=1 
C203: x5+x16 <=1 
C204: x5+x17 <=1 
C205: x5+x18 <=1 
C206: x5+x19 <=1 
C207: x5+x22 <=1 
C208: x5+x23 <=1 
C209: x5+x24-y5_24 <=1 
C210: x5+x26-y5_26 <=1 
C211: x5+x28-y5_28 <=1 
C212: x5+x29 <=1 
C213: x5+x30-y5_30 <=1 
C214: x5+x31-y5_31 <=1 
C215: x5+x33 <=1 
C216: x5+x34-y5_34 <=1 
C217: x5+x35-y5_35 <=1 
C218: x5+x38 <=1 
C219: x5+x40-y5_40 <=1 
C220: x5+x41 <=1 
C221: x5+x42 <=1 
C222: x5+x44 <=1 
C223: x5+x46 <=1 
C224: x5+x48-y5_48 <=1 
C225: x5+x50-y5_50 <=1 
C226: x5+x51 <=1 
C227: x5+x53-y5_53 <=1 
C228: x5+x54-y5_54 <=1 
C229: x5+x55-y5_55 <=1 
C230: x5+x60-y5_60 <=1 
C231: x5+x61 <=1 
C232: x5+x64 <=1 
C233: x5+x65-y5_65 <=1 
C234: x6+x7 <=1 
C235: x6+x9 <=1 
C236: x6+x10 <=1 
C237: x6+x13-y6_13 <=1 
C238: x6+x15-y6_15 <=1 
C239: x6+x16-y6_16 <=1 
C240: x6+x17 <=1 
C241: x6+x19-y6_19 <=1 
C242: x6+x20-y6_20 <=1 
C243: x6+x21-y6_21 <=1 
C244: x6+x26-y6_26 <=1 
C245: x6+x28-y6_28 <=1 
C246: x6+x30 <=1 
C247: x6+x31-y6_31 <=1 
C248: x6+x32 <=1 
C249: x6+x33-y6_33 <=1 
C250: x6+x34 <=1 
C251: x6+x35 <=1 
C252: x6+x36 <=1 
C253: x6+x39 <=1 
C254: x6+x41 <=1 
C255: x6+x42-y6_42 <=1 
C256: x6+x43-y6_43 <=1 
C257: x6+x46-y6_46 <=1 
C258: x6+x47-y6_47 <=1 
C259: x6+x50-y6_50 <=1 
C260: x6+x51 <=1 
C261: x6+x54 <=1 
C262: x6+x55-y6_55 <=1 
C263: x6+x60 <=1 
C264: x6+x62-y6_62 <=1 
C265: x6+x65 <=1 
C266: x7+x9-y7_9 <=1 
C267: x7+x10 <=1 
C268: x7+x11-y7_11 <=1 
C269: x7+x13-y7_13 <=1 
C270: x7+x14 <=1 
C271: x7+x15 <=1 
C272: x7+x16-y7_16 <=1 
C273: x7+x18-y7_18 <=1 
C274: x7+x19-y7_19 <=1 
C275: x7+x20-y7_20 <=1 
C276: x7+x21 <=1 
C277: x7+x24-y7_24 <=1 
C278: x7+x26-y7_26 <=1 
C279: x7+x27 <=1 
C280: x7+x30 <=1 
C281: x7+x33 <=1 
C282: x7+x34-y7_34 <=1 
C283: x7+x35-y7_35 <=1 
C284: x7+x37 <=1 
C285: x7+x39 <=1 
C286: x7+x41 <=1 
C287: x7+x42 <=1 
C288: x7+x43 <=1 
C289: x7+x45-y7_45 <=1 
C290: x7+x46-y7_46 <=1 
C291: x7+x47 <=1 
C292: x7+x48-y7_48 <=1 
C293: x7+x49-y7_49 <=1 
C294: x7+x54-y7_54 <=1 
C295: x7+x57 <=1 
C296: x7+x59 <=1 
C297: x7+x60-y7_60 <=1 
C298: x7+x61-y7_61 <=1 
C299: x7+x63 <=1 
C300: x7+x65 <=1 
C301: x8+x9-y8_9 <=1 
C302: x8+x10 <=1 
C303: x8+x11-y8_11 <=1 
C304: x8+x12 <=1 
C305: x8+x13-y8_13 <=1 
C306: x8+x16-y8_16 <=1 
C307: x8+x19-y8_19 <=1 
C308: x8+x21-y8_21 <=1 
C309: x8+x22-y8_22 <=1 
C310: x8+x24 <=1 
C311: x8+x25 <=1 
C312: x8+x26-y8_26 <=1 
C313: x8+x27-y8_27 <=1 
C314: x8+x29 <=1 
C315: x8+x30 <=1 
C316: x8+x34-y8_34 <=1 
C317: x8+x38 <=1 
C318: x8+x39-y8_39 <=1 
C319: x8+x40-y8_40 <=1 
C320: x8+x41-y8_41 <=1 
C321: x8+x43-y8_43 <=1 
C322: x8+x45-y8_45 <=1 
C323: x8+x46 <=1 
C324: x8+x47 <=1 
C325: x8+x49-y8_49 <=1 
C326: x8+x50 <=1 
C327: x8+x51-y8_51 <=1 
C328: x8+x52-y8_52 <=1 
C329: x8+x54-y8_54 <=1 
C330: x8+x57 <=1 
C331: x8+x58-y8_58 <=1 
C332: x8+x59 <=1 
C333: x8+x60-y8_60 <=1 
C334: x8+x62 <=1 
C335: x8+x63 <=1 
C336: x9+x11 <=1 
C337: x9+x22 <=1 
C338: x9+x24 <=1 
C339: x9+x25-y9_25 <=1 
C340: x9+x26 <=1 
C341: x9+x28 <=1 
C342: x9+x29-y9_29 <=1 
C343: x9+x30 <=1 
C344: x9+x31 <=1 
C345: x9+x32-y9_32 <=1 
C346: x9+x33 <=1 
C347: x9+x34-y9_34 <=1 
C348: x9+x35 <=1 
C349: x9+x36-y9_36 <=1 
C350: x9+x37-y9_37 <=1 
C351: x9+x38 <=1 
C352: x9+x41 <=1 
C353: x9+x42-y9_42 <=1 
C354: x9+x43-y9_43 <=1 
C355: x9+x45-y9_45 <=1 
C356: x9+x46 <=1 
C357: x9+x47-y9_47 <=1 
C358: x9+x48-y9_48 <=1 
C359: x9+x49-y9_49 <=1 
C360: x9+x50 <=1 
C361: x9+x51 <=1 
C362: x9+x53-y9_53 <=1 
C363: x9+x54-y9_54 <=1 
C364: x9+x55 <=1 
C365: x9+x58 <=1 
C366: x9+x60-y9_60 <=1 
C367: x9+x61 <=1 
C368: x9+x62-y9_62 <=1 
C369: x9+x63 <=1 
C370: x9+x64 <=1 
C371: x9+x65-y9_65 <=1 
C372: x10+x11 <=1 
C373: x10+x12-y10_12 <=1 
C374: x10+x13-y10_13 <=1 
C375: x10+x14-y10_14 <=1 
C376: x10+x16-y10_16 <=1 
C377: x10+x18-y10_18 <=1 
C378: x10+x23 <=1 
C379: x10+x24 <=1 
C380: x10+x25-y10_25 <=1 
C381: x10+x27 <=1 
C382: x10+x29-y10_29 <=1 
C383: x10+x30 <=1 
C384: x10+x34 <=1 
C385: x10+x35-y10_35 <=1 
C386: x10+x38 <=1 
C387: x10+x39 <=1 
C388: x10+x40 <=1 
C389: x10+x41 <=1 
C390: x10+x44-y10_44 <=1 
C391: x10+x45 <=1 
C392: x10+x46 <=1 
C393: x10+x47 <=1 
C394: x10+x48-y10_48 <=1 
C395: x10+x49-y10_49 <=1 
C396: x10+x50 <=1 
C397: x10+x53-y10_53 <=1 
C398: x10+x56-y10_56 <=1 
C399: x10+x58-y10_58 <=1 
C400: x10+x59 <=1 
C401: x10+x62 <=1 
C402: x10+x63-y10_63 <=1 
C403: x10+x64-y10_64 <=1 
C404: x11+x13-y11_13 <=1 
C405: x11+x15 <=1 
C406: x11+x16-y11_16 <=1 
C407: x11+x18 <=1 
C408: x11+x19-y11_19 <=1 
C409: x11+x25-y11_25 <=1 
C410: x11+x28-y11_28 <=1 
C411: x11+x30-y11_30 <=1 
C412: x11+x31 <=1 
C413: x11+x32 <=1 
C414: x11+x34 <=1 
C415: x11+x35 <=1 
C416: x11+x36 <=1 
C417: x11+x37 <=1 
C418: x11+x39 <=1 
C419: x11+x42 <=1 
C420: x11+x43-y11_43 <=1 
C421: x11+x47 <=1 
C422: x11+x49 <=1 
C423: x11+x52-y11_52 <=1 
C424: x11+x54 <=1 
C425: x11+x55-y11_55 <=1 
C426: x11+x58 <=1 
C427: x11+x59 <=1 
C428: x11+x61 <=1 
C429: x11+x62-y11_62 <=1 
C430: x11+x63 <=1 
C431: x11+x64 <=1 
C432: x12+x14 <=1 
C433: x12+x15 <=1 
C434: x12+x18-y12_18 <=1 
C435: x12+x19-y12_19 <=1 
C436: x12+x23-y12_23 <=1 
C437: x12+x27 <=1 
C438: x12+x29 <=1 
C439: x12+x30-y12_30 <=1 
C440: x12+x32 <=1 
C441: x12+x34-y12_34 <=1 
C442: x12+x35-y12_35 <=1 
C443: x12+x36-y12_36 <=1 
C444: x12+x37 <=1 
C445: x12+x39-y12_39 <=1 
C446: x12+x41-y12_41 <=1 
C447: x12+x42-y12_42 <=1 
C448: x12+x46-y12_46 <=1 
C449: x12+x47-y12_47 <=1 
C450: x12+x48-y12_48 <=1 
C451: x12+x49 <=1 
C452: x12+x52-y12_52 <=1 
C453: x12+x54-y12_54 <=1 
C454: x12+x56-y12_56 <=1 
C455: x12+x57 <=1 
C456: x12+x58 <=1 
C457: x12+x62-y12_62 <=1 
C458: x13+x14-y13_14 <=1 
C459: x13+x17 <=1 
C460: x13+x19 <=1 
C461: x13+x20 <=1 
C462: x13+x23 <=1 
C463: x13+x26-y13_26 <=1 
C464: x13+x30-y13_30 <=1 
C465: x13+x31-y13_31 <=1 
C466: x13+x32 <=1 
C467: x13+x37-y13_37 <=1 
C468: x13+x38-y13_38 <=1 
C469: x13+x40 <=1 
C470: x13+x41 <=1 
C471: x13+x42 <=1 
C472: x13+x43-y13_43 <=1 
C473: x13+x44 <=1 
C474: x13+x45-y13_45 <=1 
C475: x13+x47-y13_47 <=1 
C476: x13+x48 <=1 
C477: x13+x50-y13_50 <=1 
C478: x13+x51 <=1 
C479: x13+x53 <=1 
C480: x13+x54 <=1 
C481: x13+x55-y13_55 <=1 
C482: x13+x59 <=1 
C483: x13+x63-y13_63 <=1 
C484: x13+x65-y13_65 <=1 
C485: x14+x15-y14_15 <=1 
C486: x14+x16 <=1 
C487: x14+x17 <=1 
C488: x14+x18 <=1 
C489: x14+x19 <=1 
C490: x14+x21-y14_21 <=1 
C491: x14+x22 <=1 
C492: x14+x25-y14_25 <=1 
C493: x14+x26 <=1 
C494: x14+x27 <=1 
C495: x14+x28-y14_28 <=1 
C496: x14+x29-y14_29 <=1 
C497: x14+x30 <=1 
C498: x14+x31-y14_31 <=1 
C499: x14+x35-y14_35 <=1 
C500: x14+x36-y14_36 <=1 
C501: x14+x39 <=1 
C502: x14+x41-y14_41 <=1 
C503: x14+x44 <=1 
C504: x14+x45 <=1 
C505: x14+x46-y14_46 <=1 
C506: x14+x47 <=1 
C507: x14+x49-y14_49 <=1 
C508: x14+x50 <=1 
C509: x14+x51 <=1 
C510: x14+x52-y14_52 <=1 
C511: x14+x54 <=1 
C512: x14+x55-y14_55 <=1 
C513: x14+x56-y14_56 <=1 
C514: x14+x60-y14_60 <=1 
C515: x14+x61 <=1 
C516: x14+x65 <=1 
C517: x15+x17-y15_17 <=1 
C518: x15+x20 <=1 
C519: x15+x22 <=1 
C520: x15+x23 <=1 
C521: x15+x24 <=1 
C522: x15+x25-y15_25 <=1 
C523: x15+x27 <=1 
C524: x15+x30 <=1 
C525: x15+x31 <=1 
C526: x15+x32-y15_32 <=1 
C527: x15+x33-y15_33 <=1 
C528: x15+x34 <=1 
C529: x15+x36 <=1 
C530: x15+x37-y15_37 <=1 
C531: x15+x40-y15_40 <=1 
C532: x15+x44-y15_44 <=1 
C533: x15+x50 <=1 
C534: x15+x52 <=1 
C535: x15+x53-y15_53 <=1 
C536: x15+x55-y15_55 <=1 
C537: x15+x58 <=1 
C538: x15+x60 <=1 
C539: x15+x63-y15_63 <=1 
C540: x15+x64 <=1 
C541: x15+x65-y15_65 <=1 
C542: x16+x18 <=1 
C543: x16+x25 <=1 
C544: x16+x26 <=1 
C545: x16+x27 <=1 
C546: x16+x28-y16_28 <=1 
C547: x16+x30 <=1 
C548: x16+x31 <=1 
C549: x16+x34-y16_34 <=1 
C550: x16+x35-y16_35 <=1 
C551: x16+x37-y16_37 <=1 
C552: x16+x38-y16_38 <=1 
C553: x16+x39-y16_39 <=1 
C554: x16+x40 <=1 
C555: x16+x41 <=1 
C556: x16+x42-y16_42 <=1 
C557: x16+x44 <=1 
C558: x16+x46-y16_46 <=1 
C559: x16+x47-y16_47 <=1 
C560: x16+x48-y16_48 <=1 
C561: x16+x49-y16_49 <=1 
C562: x16+x50-y16_50 <=1 
C563: x16+x51-y16_51 <=1 
C564: x16+x53-y16_53 <=1 
C565: x16+x54-y16_54 <=1 
C566: x16+x55-y16_55 <=1 
C567: x16+x56 <=1 
C568: x16+x59 <=1 
C569: x16+x63-y16_63 <=1 
C570: x16+x64 <=1 
C571: x17+x18-y17_18 <=1 
C572: x17+x19-y17_19 <=1 
C573: x17+x21 <=1 
C574: x17+x22 <=1 
C575: x17+x23 <=1 
C576: x17+x26-y17_26 <=1 
C577: x17+x30 <=1 
C578: x17+x32-y17_32 <=1 
C579: x17+x34 <=1 
C580: x17+x37-y17_37 <=1 
C581: x17+x39 <=1 
C582: x17+x40-y17_40 <=1 
C583: x17+x41-y17_41 <=1 
C584: x17+x42-y17_42 <=1 
C585: x17+x44 <=1 
C586: x17+x45-y17_45 <=1 
C587: x17+x46 <=1 
C588: x17+x47 <=1 
C589: x17+x49 <=1 
C590: x17+x50 <=1 
C591: x17+x52-y17_52 <=1 
C592: x17+x53-y17_53 <=1 
C593: x17+x55 <=1 
C594: x17+x56 <=1 
C595: x17+x57-y17_57 <=1 
C596: x17+x58 <=1 
C597: x17+x61 <=1 
C598: x17+x65 <=1 
C599: x18+x19-y18_19 <=1 
C600: x18+x20-y18_20 <=1 
C601: x18+x21 <=1 
C602: x18+x22 <=1 
C603: x18+x23 <=1 
C604: x18+x25-y18_25 <=1 
C605: x18+x29 <=1 
C606: x18+x30 <=1 
C607: x18+x31 <=1 
C608: x18+x33-y18_33 <=1 
C609: x18+x34 <=1 
C610: x18+x36 <=1 
C611: x18+x38-y18_38 <=1 
C612: x18+x39-y18_39 <=1 
C613: x18+x41-y18_41 <=1 
C614: x18+x48 <=1 
C615: x18+x50 <=1 
C616: x18+x51 <=1 
C617: x18+x54-y18_54 <=1 
C618: x18+x56-y18_56 <=1 
C619: x18+x58 <=1 
C620: x18+x59 <=1 
C621: x18+x60 <=1 
C622: x18+x62 <=1 
C623: x18+x64-y18_64 <=1 
C624: x18+x65 <=1 
C625: x19+x20-y19_20 <=1 
C626: x19+x21 <=1 
C627: x19+x22-y19_22 <=1 
C628: x19+x23-y19_23 <=1 
C629: x19+x25-y19_25 <=1 
C630: x19+x26 <=1 
C631: x19+x28 <=1 
C632: x19+x29 <=1 
C633: x19+x31-y19_31 <=1 
C634: x19+x32 <=1 
C635: x19+x34-y19_34 <=1 
C636: x19+x36 <=1 
C637: x19+x38-y19_38 <=1 
C638: x19+x39 <=1 
C639: x19+x40-y19_40 <=1 
C640: x19+x42-y19_42 <=1 
C641: x19+x44 <=1 
C642: x19+x45-y19_45 <=1 
C643: x19+x48 <=1 
C644: x19+x49 <=1 
C645: x19+x50-y19_50 <=1 
C646: x19+x51-y19_51 <=1 
C647: x19+x52-y19_52 <=1 
C648: x19+x55-y19_55 <=1 
C649: x19+x58 <=1 
C650: x19+x59-y19_59 <=1 
C651: x19+x62-y19_62 <=1 
C652: x19+x64-y19_64 <=1 
C653: x19+x65-y19_65 <=1 
C654: x20+x21-y20_21 <=1 
C655: x20+x24-y20_24 <=1 
C656: x20+x25-y20_25 <=1 
C657: x20+x26-y20_26 <=1 
C658: x20+x27-y20_27 <=1 
C659: x20+x30 <=1 
C660: x20+x31-y20_31 <=1 
C661: x20+x32-y20_32 <=1 
C662: x20+x34-y20_34 <=1 
C663: x20+x35 <=1 
C664: x20+x37 <=1 
C665: x20+x42-y20_42 <=1 
C666: x20+x44-y20_44 <=1 
C667: x20+x46 <=1 
C668: x20+x47 <=1 
C669: x20+x49 <=1 
C670: x20+x52-y20_52 <=1 
C671: x20+x53-y20_53 <=1 
C672: x20+x54-y20_54 <=1 
C673: x20+x55 <=1 
C674: x20+x56 <=1 
C675: x20+x58 <=1 
C676: x20+x60 <=1 
C677: x20+x62-y20_62 <=1 
C678: x20+x63-y20_63 <=1 
C679: x20+x64 <=1 
C680: x20+x65-y20_65 <=1 
C681: x21+x22-y21_22 <=1 
C682: x21+x24 <=1 
C683: x21+x32 <=1 
C684: x21+x33 <=1 
C685: x21+x37 <=1 
C686: x21+x38-y21_38 <=1 
C687: x21+x39-y21_39 <=1 
C688: x21+x40 <=1 
C689: x21+x43-y21_43 <=1 
C690: x21+x44-y21_44 <=1 
C691: x21+x45 <=1 
C692: x21+x46 <=1 
C693: x21+x49 <=1 
C694: x21+x51 <=1 
C695: x21+x53-y21_53 <=1 
C696: x21+x54-y21_54 <=1 
C697: x21+x55 <=1 
C698: x21+x57-y21_57 <=1 
C699: x21+x58-y21_58 <=1 
C700: x21+x62-y21_62 <=1 
C701: x21+x63 <=1 
C702: x21+x64 <=1 
C703: x21+x65 <=1 
C704: x22+x23-y22_23 <=1 
C705: x22+x24 <=1 
C706: x22+x26-y22_26 <=1 
C707: x22+x27-y22_27 <=1 
C708: x22+x30 <=1 
C709: x22+x31 <=1 
C710: x22+x34 <=1 
C711: x22+x37 <=1 
C712: x22+x39 <=1 
C713: x22+x40-y22_40 <=1 
C714: x22+x41 <=1 
C715: x22+x43 <=1 
C716: x22+x44-y22_44 <=1 
C717: x22+x45-y22_45 <=1 
C718: x22+x46 <=1 
C719: x22+x49 <=1 
C720: x22+x50-y22_50 <=1 
C721: x22+x51-y22_51 <=1 
C722: x22+x52-y22_52 <=1 
C723: x22+x54-y22_54 <=1 
C724: x22+x56-y22_56 <=1 
C725: x22+x59 <=1 
C726: x22+x60-y22_60 <=1 
C727: x22+x62 <=1 
C728: x22+x63 <=1 
C729: x22+x64-y22_64 <=1 
C730: x22+x65-y22_65 <=1 
C731: x23+x25-y23_25 <=1 
C732: x23+x27-y23_27 <=1 
C733: x23+x28-y23_28 <=1 
C734: x23+x29-y23_29 <=1 
C735: x23+x30 <=1 
C736: x23+x31 <=1 
C737: x23+x32 <=1 
C738: x23+x34-y23_34 <=1 
C739: x23+x36 <=1 
C740: x23+x37 <=1 
C741: x23+x38-y23_38 <=1 
C742: x23+x41 <=1 
C743: x23+x43-y23_43 <=1 
C744: x23+x44 <=1 
C745: x23+x45 <=1 
C746: x23+x47-y23_47 <=1 
C747: x23+x52-y23_52 <=1 
C748: x23+x53 <=1 
C749: x23+x54-y23_54 <=1 
C750: x23+x57-y23_57 <=1 
C751: x23+x59-y23_59 <=1 
C752: x23+x60-y23_60 <=1 
C753: x23+x63 <=1 
C754: x24+x25 <=1 
C755: x24+x26 <=1 
C756: x24+x27-y24_27 <=1 
C757: x24+x28 <=1 
C758: x24+x30 <=1 
C759: x24+x31 <=1 
C760: x24+x33-y24_33 <=1 
C761: x24+x35-y24_35 <=1 
C762: x24+x36 <=1 
C763: x24+x37 <=1 
C764: x24+x39-y24_39 <=1 
C765: x24+x40 <=1 
C766: x24+x41-y24_41 <=1 
C767: x24+x43 <=1 
C768: x24+x45 <=1 
C769: x24+x46-y24_46 <=1 
C770: x24+x47 <=1 
C771: x24+x49 <=1 
C772: x24+x52 <=1 
C773: x24+x53-y24_53 <=1 
C774: x24+x55 <=1 
C775: x24+x58 <=1 
C776: x24+x59 <=1 
C777: x24+x61-y24_61 <=1 
C778: x24+x62 <=1 
C779: x24+x64-y24_64 <=1 
C780: x24+x65-y24_65 <=1 
C781: x25+x26 <=1 
C782: x25+x28-y25_28 <=1 
C783: x25+x30-y25_30 <=1 
C784: x25+x32-y25_32 <=1 
C785: x25+x33-y25_33 <=1 
C786: x25+x34 <=1 
C787: x25+x37-y25_37 <=1 
C788: x25+x40 <=1 
C789: x25+x41-y25_41 <=1 
C790: x25+x42-y25_42 <=1 
C791: x25+x43-y25_43 <=1 
C792: x25+x44-y25_44 <=1 
C793: x25+x47 <=1 
C794: x25+x49 <=1 
C795: x25+x50-y25_50 <=1 
C796: x25+x53-y25_53 <=1 
C797: x25+x54-y25_54 <=1 
C798: x25+x55-y25_55 <=1 
C799: x25+x56 <=1 
C800: x25+x57 <=1 
C801: x25+x58-y25_58 <=1 
C802: x25+x59-y25_59 <=1 
C803: x25+x60-y25_60 <=1 
C804: x25+x61 <=1 
C805: x25+x62-y25_62 <=1 
C806: x25+x64-y25_64 <=1 
C807: x26+x29 <=1 
C808: x26+x30 <=1 
C809: x26+x31 <=1 
C810: x26+x34 <=1 
C811: x26+x36-y26_36 <=1 
C812: x26+x40-y26_40 <=1 
C813: x26+x42-y26_42 <=1 
C814: x26+x43-y26_43 <=1 
C815: x26+x44 <=1 
C816: x26+x47 <=1 
C817: x26+x48 <=1 
C818: x26+x49 <=1 
C819: x26+x50 <=1 
C820: x26+x51-y26_51 <=1 
C821: x26+x52-y26_52 <=1 
C822: x26+x53-y26_53 <=1 
C823: x26+x55-y26_55 <=1 
C824: x26+x56-y26_56 <=1 
C825: x26+x59 <=1 
C826: x26+x60 <=1 
C827: x26+x62-y26_62 <=1 
C828: x26+x63-y26_63 <=1 
C829: x26+x65-y26_65 <=1 
C830: x27+x28 <=1 
C831: x27+x29-y27_29 <=1 
C832: x27+x31-y27_31 <=1 
C833: x27+x32 <=1 
C834: x27+x33-y27_33 <=1 
C835: x27+x34-y27_34 <=1 
C836: x27+x35 <=1 
C837: x27+x37-y27_37 <=1 
C838: x27+x38-y27_38 <=1 
C839: x27+x41 <=1 
C840: x27+x42-y27_42 <=1 
C841: x27+x43 <=1 
C842: x27+x45-y27_45 <=1 
C843: x27+x48 <=1 
C844: x27+x50 <=1 
C845: x27+x52 <=1 
C846: x27+x53 <=1 
C847: x27+x54 <=1 
C848: x27+x55-y27_55 <=1 
C849: x27+x56-y27_56 <=1 
C850: x27+x57 <=1 
C851: x27+x58-y27_58 <=1 
C852: x27+x60 <=1 
C853: x27+x63 <=1 
C854: x27+x64-y27_64 <=1 
C855: x27+x65 <=1 
C856: x28+x29 <=1 
C857: x28+x30 <=1 
C858: x28+x32 <=1 
C859: x28+x34-y28_34 <=1 
C860: x28+x35 <=1 
C861: x28+x36-y28_36 <=1 
C862: x28+x37-y28_37 <=1 
C863: x28+x38-y28_38 <=1 
C864: x28+x39 <=1 
C865: x28+x40-y28_40 <=1 
C866: x28+x41-y28_41 <=1 
C867: x28+x42-y28_42 <=1 
C868: x28+x43 <=1 
C869: x28+x44-y28_44 <=1 
C870: x28+x46-y28_46 <=1 
C871: x28+x49-y28_49 <=1 
C872: x28+x52-y28_52 <=1 
C873: x28+x53 <=1 
C874: x28+x54 <=1 
C875: x28+x56 <=1 
C876: x28+x57-y28_57 <=1 
C877: x28+x59 <=1 
C878: x28+x60-y28_60 <=1 
C879: x28+x61-y28_61 <=1 
C880: x28+x62-y28_62 <=1 
C881: x28+x63-y28_63 <=1 
C882: x28+x64 <=1 
C883: x28+x65 <=1 
C884: x29+x32-y29_32 <=1 
C885: x29+x33 <=1 
C886: x29+x35 <=1 
C887: x29+x36-y29_36 <=1 
C888: x29+x38-y29_38 <=1 
C889: x29+x39-y29_39 <=1 
C890: x29+x40-y29_40 <=1 
C891: x29+x41-y29_41 <=1 
C892: x29+x43 <=1 
C893: x29+x45 <=1 
C894: x29+x48 <=1 
C895: x29+x50-y29_50 <=1 
C896: x29+x51 <=1 
C897: x29+x52 <=1 
C898: x29+x53 <=1 
C899: x29+x54 <=1 
C900: x29+x58-y29_58 <=1 
C901: x29+x60 <=1 
C902: x29+x61 <=1 
C903: x29+x62 <=1 
C904: x29+x63-y29_63 <=1 
C905: x29+x64 <=1 
C906: x29+x65-y29_65 <=1 
C907: x30+x31-y30_31 <=1 
C908: x30+x32-y30_32 <=1 
C909: x30+x35 <=1 
C910: x30+x37 <=1 
C911: x30+x38 <=1 
C912: x30+x39 <=1 
C913: x30+x41-y30_41 <=1 
C914: x30+x43 <=1 
C915: x30+x44-y30_44 <=1 
C916: x30+x45 <=1 
C917: x30+x46 <=1 
C918: x30+x47-y30_47 <=1 
C919: x30+x49-y30_49 <=1 
C920: x30+x50-y30_50 <=1 
C921: x30+x52-y30_52 <=1 
C922: x30+x56 <=1 
C923: x30+x57 <=1 
C924: x31+x34-y31_34 <=1 
C925: x31+x36-y31_36 <=1 
C926: x31+x38-y31_38 <=1 
C927: x31+x39 <=1 
C928: x31+x41 <=1 
C929: x31+x42 <=1 
C930: x31+x45 <=1 
C931: x31+x46-y31_46 <=1 
C932: x31+x47 <=1 
C933: x31+x48-y31_48 <=1 
C934: x31+x54-y31_54 <=1 
C935: x31+x55 <=1 
C936: x31+x57 <=1 
C937: x31+x58 <=1 
C938: x31+x61-y31_61 <=1 
C939: x31+x62-y31_62 <=1 
C940: x31+x63 <=1 
C941: x31+x64-y31_64 <=1 
C942: x31+x65-y31_65 <=1 
C943: x32+x33-y32_33 <=1 
C944: x32+x35 <=1 
C945: x32+x38 <=1 
C946: x32+x40 <=1 
C947: x32+x42 <=1 
C948: x32+x44 <=1 
C949: x32+x45-y32_45 <=1 
C950: x32+x49 <=1 
C951: x32+x50 <=1 
C952: x32+x52 <=1 
C953: x32+x53-y32_53 <=1 
C954: x32+x54 <=1 
C955: x32+x55 <=1 
C956: x32+x56 <=1 
C957: x32+x57-y32_57 <=1 
C958: x32+x58-y32_58 <=1 
C959: x32+x59 <=1 
C960: x32+x63 <=1 
C961: x32+x64-y32_64 <=1 
C962: x33+x37 <=1 
C963: x33+x41-y33_41 <=1 
C964: x33+x43-y33_43 <=1 
C965: x33+x44-y33_44 <=1 
C966: x33+x46 <=1 
C967: x33+x47 <=1 
C968: x33+x51 <=1 
C969: x33+x54-y33_54 <=1 
C970: x33+x55-y33_55 <=1 
C971: x33+x58-y33_58 <=1 
C972: x33+x59-y33_59 <=1 
C973: x33+x62 <=1 
C974: x33+x64 <=1 
C975: x34+x35-y34_35 <=1 
C976: x34+x38-y34_38 <=1 
C977: x34+x39-y34_39 <=1 
C978: x34+x42-y34_42 <=1 
C979: x34+x43-y34_43 <=1 
C980: x34+x44-y34_44 <=1 
C981: x34+x50 <=1 
C982: x34+x51 <=1 
C983: x34+x53-y34_53 <=1 
C984: x34+x54-y34_54 <=1 
C985: x34+x55-y34_55 <=1 
C986: x34+x57 <=1 
C987: x34+x62-y34_62 <=1 
C988: x34+x63 <=1 
C989: x34+x64 <=1 
C990: x34+x65-y34_65 <=1 
C991: x35+x36 <=1 
C992: x35+x37-y35_37 <=1 
C993: x35+x38 <=1 
C994: x35+x39-y35_39 <=1 
C995: x35+x40-y35_40 <=1 
C996: x35+x41-y35_41 <=1 
C997: x35+x42 <=1 
C998: x35+x43 <=1 
C999: x35+x44 <=1 
C1000: x35+x45 <=1 
C1001: x35+x47 <=1 
C1002: x35+x49-y35_49 <=1 
C1003: x35+x51 <=1 
C1004: x35+x52 <=1 
C1005: x35+x58 <=1 
C1006: x35+x59 <=1 
C1007: x35+x60 <=1 
C1008: x35+x61-y35_61 <=1 
C1009: x36+x37 <=1 
C1010: x36+x39-y36_39 <=1 
C1011: x36+x41 <=1 
C1012: x36+x45-y36_45 <=1 
C1013: x36+x48-y36_48 <=1 
C1014: x36+x49 <=1 
C1015: x36+x51 <=1 
C1016: x36+x57 <=1 
C1017: x36+x58-y36_58 <=1 
C1018: x36+x59 <=1 
C1019: x36+x60-y36_60 <=1 
C1020: x36+x61-y36_61 <=1 
C1021: x36+x62-y36_62 <=1 
C1022: x36+x64-y36_64 <=1 
C1023: x37+x39 <=1 
C1024: x37+x40 <=1 
C1025: x37+x41-y37_41 <=1 
C1026: x37+x43-y37_43 <=1 
C1027: x37+x44-y37_44 <=1 
C1028: x37+x45 <=1 
C1029: x37+x46 <=1 
C1030: x37+x47 <=1 
C1031: x37+x48 <=1 
C1032: x37+x49-y37_49 <=1 
C1033: x37+x50 <=1 
C1034: x37+x51 <=1 
C1035: x37+x52-y37_52 <=1 
C1036: x37+x54 <=1 
C1037: x37+x56 <=1 
C1038: x37+x57 <=1 
C1039: x37+x59-y37_59 <=1 
C1040: x37+x60-y37_60 <=1 
C1041: x37+x63-y37_63 <=1 
C1042: x37+x64 <=1 
C1043: x37+x65-y37_65 <=1 
C1044: x38+x39-y38_39 <=1 
C1045: x38+x44 <=1 
C1046: x38+x49-y38_49 <=1 
C1047: x38+x50-y38_50 <=1 
C1048: x38+x53-y38_53 <=1 
C1049: x38+x55-y38_55 <=1 
C1050: x38+x57 <=1 
C1051: x38+x58 <=1 
C1052: x38+x59-y38_59 <=1 
C1053: x38+x60-y38_60 <=1 
C1054: x38+x61-y38_61 <=1 
C1055: x38+x62-y38_62 <=1 
C1056: x38+x63 <=1 
C1057: x38+x65-y38_65 <=1 
C1058: x39+x41 <=1 
C1059: x39+x44 <=1 
C1060: x39+x46-y39_46 <=1 
C1061: x39+x47 <=1 
C1062: x39+x48 <=1 
C1063: x39+x49 <=1 
C1064: x39+x50 <=1 
C1065: x39+x54-y39_54 <=1 
C1066: x39+x55-y39_55 <=1 
C1067: x39+x56-y39_56 <=1 
C1068: x39+x57 <=1 
C1069: x39+x60-y39_60 <=1 
C1070: x39+x62-y39_62 <=1 
C1071: x39+x64-y39_64 <=1 
C1072: x39+x65 <=1 
C1073: x40+x41-y40_41 <=1 
C1074: x40+x42 <=1 
C1075: x40+x45-y40_45 <=1 
C1076: x40+x46-y40_46 <=1 
C1077: x40+x50-y40_50 <=1 
C1078: x40+x52 <=1 
C1079: x40+x54 <=1 
C1080: x40+x55-y40_55 <=1 
C1081: x40+x57 <=1 
C1082: x40+x59-y40_59 <=1 
C1083: x40+x61-y40_61 <=1 
C1084: x40+x62-y40_62 <=1 
C1085: x40+x64 <=1 
C1086: x40+x65 <=1 
C1087: x41+x42-y41_42 <=1 
C1088: x41+x45-y41_45 <=1 
C1089: x41+x48-y41_48 <=1 
C1090: x41+x50 <=1 
C1091: x41+x52 <=1 
C1092: x41+x53 <=1 
C1093: x41+x54-y41_54 <=1 
C1094: x41+x55-y41_55 <=1 
C1095: x41+x57 <=1 
C1096: x41+x58 <=1 
C1097: x41+x60 <=1 
C1098: x41+x61 <=1 
C1099: x41+x62 <=1 
C1100: x41+x63-y41_63 <=1 
C1101: x41+x65-y41_65 <=1 
C1102: x42+x43-y42_43 <=1 
C1103: x42+x44 <=1 
C1104: x42+x45-y42_45 <=1 
C1105: x42+x46 <=1 
C1106: x42+x49-y42_49 <=1 
C1107: x42+x50-y42_50 <=1 
C1108: x42+x51-y42_51 <=1 
C1109: x42+x52-y42_52 <=1 
C1110: x42+x54 <=1 
C1111: x42+x55 <=1 
C1112: x42+x56 <=1 
C1113: x42+x58 <=1 
C1114: x42+x60-y42_60 <=1 
C1115: x42+x61-y42_61 <=1 
C1116: x42+x63-y42_63 <=1 
C1117: x42+x64-y42_64 <=1 
C1118: x43+x44-y43_44 <=1 
C1119: x43+x46 <=1 
C1120: x43+x49-y43_49 <=1 
C1121: x43+x50 <=1 
C1122: x43+x51-y43_51 <=1 
C1123: x43+x53 <=1 
C1124: x43+x54-y43_54 <=1 
C1125: x43+x55-y43_55 <=1 
C1126: x43+x56 <=1 
C1127: x43+x57 <=1 
C1128: x43+x59-y43_59 <=1 
C1129: x43+x60 <=1 
C1130: x43+x61-y43_61 <=1 
C1131: x43+x62-y43_62 <=1 
C1132: x43+x63-y43_63 <=1 
C1133: x44+x48 <=1 
C1134: x44+x50-y44_50 <=1 
C1135: x44+x52-y44_52 <=1 
C1136: x44+x53 <=1 
C1137: x44+x54-y44_54 <=1 
C1138: x44+x55-y44_55 <=1 
C1139: x44+x57-y44_57 <=1 
C1140: x44+x58 <=1 
C1141: x44+x59 <=1 
C1142: x44+x61 <=1 
C1143: x44+x63-y44_63 <=1 
C1144: x44+x64 <=1 
C1145: x44+x65 <=1 
C1146: x45+x50-y45_50 <=1 
C1147: x45+x51 <=1 
C1148: x45+x53 <=1 
C1149: x45+x56-y45_56 <=1 
C1150: x45+x60-y45_60 <=1 
C1151: x45+x62-y45_62 <=1 
C1152: x45+x63 <=1 
C1153: x45+x64 <=1 
C1154: x46+x51-y46_51 <=1 
C1155: x46+x52-y46_52 <=1 
C1156: x46+x56 <=1 
C1157: x46+x59-y46_59 <=1 
C1158: x46+x62 <=1 
C1159: x46+x63-y46_63 <=1 
C1160: x47+x48 <=1 
C1161: x47+x49 <=1 
C1162: x47+x50 <=1 
C1163: x47+x51 <=1 
C1164: x47+x53 <=1 
C1165: x47+x55-y47_55 <=1 
C1166: x47+x56 <=1 
C1167: x47+x57-y47_57 <=1 
C1168: x47+x58 <=1 
C1169: x47+x59-y47_59 <=1 
C1170: x47+x60 <=1 
C1171: x47+x61 <=1 
C1172: x47+x62-y47_62 <=1 
C1173: x47+x63-y47_63 <=1 
C1174: x47+x64 <=1 
C1175: x48+x49 <=1 
C1176: x48+x51-y48_51 <=1 
C1177: x48+x52-y48_52 <=1 
C1178: x48+x56-y48_56 <=1 
C1179: x48+x58-y48_58 <=1 
C1180: x48+x59 <=1 
C1181: x48+x60-y48_60 <=1 
C1182: x48+x61-y48_61 <=1 
C1183: x48+x63-y48_63 <=1 
C1184: x49+x50-y49_50 <=1 
C1185: x49+x51 <=1 
C1186: x49+x52-y49_52 <=1 
C1187: x49+x54-y49_54 <=1 
C1188: x49+x57-y49_57 <=1 
C1189: x49+x58 <=1 
C1190: x49+x59-y49_59 <=1 
C1191: x49+x60 <=1 
C1192: x49+x61-y49_61 <=1 
C1193: x49+x63 <=1 
C1194: x49+x64-y49_64 <=1 
C1195: x49+x65 <=1 
C1196: x50+x52-y50_52 <=1 
C1197: x50+x54-y50_54 <=1 
C1198: x50+x55-y50_55 <=1 
C1199: x50+x59-y50_59 <=1 
C1200: x50+x60-y50_60 <=1 
C1201: x50+x61 <=1 
C1202: x50+x62-y50_62 <=1 
C1203: x50+x63-y50_63 <=1 
C1204: x51+x54 <=1 
C1205: x51+x55-y51_55 <=1 
C1206: x51+x56-y51_56 <=1 
C1207: x51+x57-y51_57 <=1 
C1208: x51+x58-y51_58 <=1 
C1209: x51+x60-y51_60 <=1 
C1210: x51+x62-y51_62 <=1 
C1211: x51+x64 <=1 
C1212: x51+x65 <=1 
C1213: x52+x54-y52_54 <=1 
C1214: x52+x55 <=1 
C1215: x52+x57-y52_57 <=1 
C1216: x52+x58 <=1 
C1217: x52+x60-y52_60 <=1 
C1218: x52+x63 <=1 
C1219: x52+x64-y52_64 <=1 
C1220: x52+x65 <=1 
C1221: x53+x54-y53_54 <=1 
C1222: x53+x55-y53_55 <=1 
C1223: x53+x58 <=1 
C1224: x53+x61 <=1 
C1225: x54+x55-y54_55 <=1 
C1226: x54+x56-y54_56 <=1 
C1227: x54+x58-y54_58 <=1 
C1228: x54+x60 <=1 
C1229: x54+x61 <=1 
C1230: x54+x62-y54_62 <=1 
C1231: x54+x63 <=1 
C1232: x55+x56 <=1 
C1233: x55+x57 <=1 
C1234: x55+x60-y55_60 <=1 
C1235: x55+x61 <=1 
C1236: x55+x65-y55_65 <=1 
C1237: x56+x57 <=1 
C1238: x56+x58-y56_58 <=1 
C1239: x56+x59 <=1 
C1240: x56+x60-y56_60 <=1 
C1241: x56+x61-y56_61 <=1 
C1242: x56+x62-y56_62 <=1 
C1243: x56+x63-y56_63 <=1 
C1244: x56+x64-y56_64 <=1 
C1245: x56+x65-y56_65 <=1 
C1246: x57+x58 <=1 
C1247: x57+x59-y57_59 <=1 
C1248: x57+x61-y57_61 <=1 
C1249: x57+x62 <=1 
C1250: x57+x63-y57_63 <=1 
C1251: x57+x64 <=1 
C1252: x57+x65-y57_65 <=1 
C1253: x58+x59-y58_59 <=1 
C1254: x58+x60 <=1 
C1255: x58+x61 <=1 
C1256: x58+x63-y58_63 <=1 
C1257: x58+x64 <=1 
C1258: x58+x65-y58_65 <=1 
C1259: x59+x61 <=1 
C1260: x59+x62 <=1 
C1261: x59+x63-y59_63 <=1 
C1262: x59+x64 <=1 
C1263: x59+x65-y59_65 <=1 
C1264: x60+x61 <=1 
C1265: x60+x64-y60_64 <=1 
C1266: x61+x63-y61_63 <=1 
C1267: x61+x65 <=1 
C1268: x62+x63-y62_63 <=1 
C1269: x63+x65 <=1 

binary
x0
x1
x2
x3
x4
x5
x6
x7
x8
x9
x10
x11
x12
x13
x14
x15
x16
x17
x18
x19
x20
x21
x22
x23
x24
x25
x26
x27
x28
x29
x30
x31
x32
x33
x34
x35
x36
x37
x38
x39
x40
x41
x42
x43
x44
x45
x46
x47
x48
x49
x50
x51
x52
x53
x54
x55
x56
x57
x58
x59
x60
x61
x62
x63
x64
x65
