problem_generation/data/GISP/train/er_n=66_m=1269_p=0.60_SET2_setparam=100.00_alpha=0.50_110.sol
objective value:                                 1364
x2                                                  1 	(obj:100)
x4                                                  1 	(obj:100)
x11                                                 1 	(obj:100)
x12                                                 1 	(obj:100)
x16                                                 1 	(obj:100)
x22                                                 1 	(obj:100)
x33                                                 1 	(obj:100)
x38                                                 1 	(obj:100)
x45                                                 1 	(obj:100)
x48                                                 1 	(obj:100)
x50                                                 1 	(obj:100)
x55                                                 1 	(obj:100)
x60                                                 1 	(obj:100)
x65                                                 1 	(obj:100)
y2_50                                               1 	(obj:-1)
y55_65                                              1 	(obj:-1)
y2_22                                               1 	(obj:-1)
y55_60                                              1 	(obj:-1)
y16_55                                              1 	(obj:-1)
y16_50                                              1 	(obj:-1)
y38_65                                              1 	(obj:-1)
y2_16                                               1 	(obj:-1)
y12_48                                              1 	(obj:-1)
y38_60                                              1 	(obj:-1)
y38_55                                              1 	(obj:-1)
y11_55                                              1 	(obj:-1)
y22_60                                              1 	(obj:-1)
y38_50                                              1 	(obj:-1)
y4_33                                               1 	(obj:-1)
y22_50                                              1 	(obj:-1)
y33_55                                              1 	(obj:-1)
y22_45                                              1 	(obj:-1)
y2_48                                               1 	(obj:-1)
y11_16                                              1 	(obj:-1)
y2_38                                               1 	(obj:-1)
y2_33                                               1 	(obj:-1)
y50_60                                              1 	(obj:-1)
y16_48                                              1 	(obj:-1)
y50_55                                              1 	(obj:-1)
y4_55                                               1 	(obj:-1)
y16_38                                              1 	(obj:-1)
y2_4                                                1 	(obj:-1)
y4_50                                               1 	(obj:-1)
y45_60                                              1 	(obj:-1)
y45_50                                              1 	(obj:-1)
y48_60                                              1 	(obj:-1)
y4_12                                               1 	(obj:-1)
y2_60                                               1 	(obj:-1)
y22_65                                              1 	(obj:-1)
y4_16                                               1 	(obj:-1)
